WARNING: for repeatability, setting FPU to use double precision
============================[ Problem Statistics ]=============================
|                                                                             |
|  Number of variables:           100                                         |
|  Number of clauses:             449                                         |
|  Parse time:                   0.00 s                                       |
|  Simplification time:          0.00 s                                       |
|                                                                             |
============================[ Search Statistics ]==============================
| Conflicts |          ORIGINAL         |          LEARNT          | Progress |
|           |    Vars  Clauses Literals |    Limit  Clauses Lit/Cl |          |
===============================================================================
|       100 |     100      449     1347 |      164      100      6 |  0.012 % |
===============================================================================
restarts              : 2
conflicts             : 101            (56236 /sec)
decisions             : 145            (0.00 % random) (80735 /sec)
propagations          : 2451           (1364699 /sec)
conflict literals     : 609            (17.26 % deleted)
Memory used           : 13.00 MB
CPU time              : 0.001796 s

SATISFIABLE
